DATASET = "thpack4";
INSTANCE = "030";

WIDTH = 233;
HEIGHT = 220;
LENGTH = 587;

NO_OF_SHAPES = 10;
size = [|
  64,53,32 |
  51,42,28 |
  49,32,30 |
  109,68,59 |
  66,43,32 |
  120,71,47 |
  109,57,41 |
  100,70,28 |
  76,70,51 |
  85,40,26 |
|];

verticality = [|
  0,1,1 |
  1,1,1 |
  1,1,1 |
  1,1,1 |
  0,1,1 |
  0,1,1 |
  0,1,1 |
  0,0,1 |
  1,1,1 |
  0,1,1 |
|];

box_count = [
  16,
  14,
  18,
  17,
  11,
  16,
  17,
  16,
  11,
  15,
];
